NAME : portcgen-23-15
COMMENT : portcgen N=23, seed=15
TYPE : TSP
DIMENSION : 23
EDGE_WEIGHT_TYPE : EUC_2D
NODE_COORD_SECTION
1 108099 98909
2 -354424 -241782
3 164935 63710
4 181478 308985
5 47761 -325964
6 343774 -319225
7 253190 -8275
8 -233822 161461
9 351604 97505
10 -48148 -260934
11 92984 143247
12 -179289 170980
13 339035 -254987
14 -175650 -242879
15 307981 17796
16 -41550 -297410
17 -96205 127399
18 326941 218928
19 -406154 -7440
20 260382 -130087
21 -122910 22947
22 118419 139823
23 40773 -209955
